output ["pos_x = ",show(pos_x),";\n","pos_y = ",show(pos_y),";\n"];
set of int: TIMES = 0..7;
set of int: ROBOTS = 1..3;
array [1..24] of int: X_INTRODUCED_25_;
array [ROBOTS,TIMES] of int: pos_y = array2d(1..3,0..7,X_INTRODUCED_25_);
array [1..24] of int: X_INTRODUCED_0_;
array [ROBOTS,TIMES] of int: pos_x = array2d(1..3,0..7,X_INTRODUCED_0_);
